0 0 0 0
0 1 2 0
0 2 1 0
0 3 0 0
0 4 0 4
0 5 0 10
0 6 2 2
0 7 1 2
0 8 2 1
0 9 0 2
0 10 0 7
0 11 2 7
0 12 0 10
0 13 1 8
0 14 0 13
0 15 0 16
0 16 0 25
0 17 0 13
0 18 0 13
0 19 2 20
0 20 2 17
0 21 0 25
0 22 1 15
0 23 1 26
0 24 0 17
0 25 0 26
0 26 0 17
0 27 1 28
0 28 0 32
0 29 0 32
0 30 2 23
0 31 0 33
